p td 20 60
3 2
3 1
5 2
6 4
6 5
6 1
7 1
7 5
7 3
9 4
9 1
9 7
9 6
10 4
10 5
11 1
11 2
11 6
11 8
12 3
12 6
12 9
13 3
13 8
13 11
13 9
14 11
14 8
15 11
15 9
15 7
15 14
15 2
16 1
16 5
16 4
17 5
17 10
17 9
18 16
18 3
18 7
18 11
18 14
18 1
19 13
19 8
19 5
19 3
19 11
19 9
19 14
20 17
20 10
20 3
20 19
20 15
20 5
20 7
20 13
